 B N [ (3x3x2) h-BN crystal, a=2.50455, b=2.50455, c=3.35 ]
  1.00000000000000
      7.513636403234      0.000000000000      0.000000000000
      3.756818201617      6.507000000000      0.000000000000
      0.000000000000      0.000000000000     22.445000000000
18 18 
Cartesian
    1.252272733872       0.723000000000       0.000000000000
    3.756818201617       0.723000000000       0.000000000000
    6.261363669361       0.723000000000       0.000000000000
    2.504545467745       2.892000000000       0.000000000000
    5.009090935489       2.892000000000       0.000000000000
    7.513636403234       2.892000000000       0.000000000000
    3.756818201617       5.061000000000       0.000000000000
    6.261363669361       5.061000000000       0.000000000000
    8.765909137106       5.061000000000       0.000000000000
    1.252272733872       0.723000000000      11.222500000000
    3.756818201617       0.723000000000      11.222500000000
    6.261363669361       0.723000000000      11.222500000000
    2.504545467745       2.892000000000      11.222500000000
    5.009090935489       2.892000000000      11.222500000000
    7.513636403234       2.892000000000      11.222500000000
    3.756818201617       5.061000000000      11.222500000000
    6.261363669361       5.061000000000      11.222500000000
    8.765909137106       5.061000000000      11.222500000000
    2.504545467745       1.446000000000       0.000000000000
    5.009090935489       1.446000000000       0.000000000000
    7.513636403234       1.446000000000       0.000000000000
    3.756818201617       3.615000000000       0.000000000000
    6.261363669361       3.615000000000       0.000000000000
    8.765909137106       3.615000000000       0.000000000000
    5.009090935489       5.784000000000       0.000000000000
    7.513636403234       5.784000000000       0.000000000000
   10.018181870978       5.784000000000       0.000000000000
    2.504545467745       1.446000000000      11.222500000000
    5.009090935489       1.446000000000      11.222500000000
    7.513636403234       1.446000000000      11.222500000000
    3.756818201617       3.615000000000      11.222500000000
    6.261363669361       3.615000000000      11.222500000000
    8.765909137106       3.615000000000      11.222500000000
    5.009090935489       5.784000000000      11.222500000000
    7.513636403234       5.784000000000      11.222500000000
   10.018181870978       5.784000000000      11.222500000000
