 C [ (3x3x1) h-graphene crystal, a=2.456, b=2.456, c=3.35 ]
  1.00000000000000
      7.368000000000      0.000000000000      0.000000000000
      3.684000000000      6.380875175084      0.000000000000
      0.000000000000      0.000000000000      3.350000000000
18 
Direct
    0.111111111111       0.111111111111       0.000000000000
    0.444444444444       0.111111111111       0.000000000000
    0.777777777778       0.111111111111       0.000000000000
    0.111111111111       0.444444444444       0.000000000000
    0.444444444444       0.444444444444       0.000000000000
    0.777777777778       0.444444444444       0.000000000000
    0.111111111111       0.777777777778       0.000000000000
    0.444444444444       0.777777777778       0.000000000000
    0.777777777778       0.777777777778       0.000000000000
    0.222222222222       0.222222222222       0.000000000000
    0.555555555556       0.222222222222       0.000000000000
    0.888888888889       0.222222222222       0.000000000000
    0.222222222222       0.555555555556       0.000000000000
    0.555555555556       0.555555555556       0.000000000000
    0.888888888889       0.555555555556       0.000000000000
    0.222222222222       0.888888888889       0.000000000000
    0.555555555556       0.888888888889       0.000000000000
    0.888888888889       0.888888888889       0.000000000000
